Route #1: 89 98 99 62 71
Route #2: 38 47 26 48 96 64 34
Route #3: 7 2 45 43 29 36 72 57
Route #4: 8 17
Route #5: 86 9 92
Route #6: 93 75
Route #7: 27 97 19
Route #8: 69 16 55 76
Route #9: 5 12 58
Route #10: 87 37 6 49 14
Route #11: 63 77 3
Route #12: 83 51 81
Route #13: 18 10 39
Route #14: 40 67 88 44
Route #15: 20 41 22 15
Route #16: 21 56 94 80
Route #17: 100 61 23
Route #18: 28 42 78 65 25
Route #19: 32 33 53 73 95 24
Route #20: 50 91 52
Route #21: 66 84 90 68
Route #22: 54 70 1
Route #23: 74 13 4
Route #24: 82 60 59
Route #25: 30 85 11 79
Route #26: 35 46 31
Cost 27591.0000
Time 16.0014